 47 77 66 13 77 20 29 11 85 98 36 92 99 65 34 35 42 28 28  5
 80 46 37 86 85 67 22 67 20  1 39 25  1 41 74 39  2 20  3 29
 51 79 35 63 18 67 73  2 23 59 46 12 17 87 35 27 71 11 97 83
 63 22 47 46 72 16 35  2 22 50 58 46 19 82 69 14 94 39 62 27
 60 20 13 64 67 25 39 40 72 28 36 60  2  8 33 85 51  6  5 72
 70 96 56 22 44 83 66 56 27 52 46 83 76 25 28 26 98 64 66 15
 39 75 66 89 56 42 90 77 76 43 14  3 57 98 47 35 58  6 95  9
 33  1 59 85  1 85 65 47 13 12 23 21 89 51 34 62  6 22 75 22
  5 37 72  6 90 71 47 60 93 17 65 12 97 29 41  3 46 33 55 10
  9 14 37 54 14 53 27 64 25 79 30 33  5 96  1 51 42 78 70 91